NAME: random problem
TYPE: MTSP
COMMENT: MTSP problem for MRS UAV summer school
DIMENSION: 20
NUMBER_OF_ROBOTS: 2
START_TARGET_INDEXES: 1, 2
NEIGHBORHOOD_RADIUS: 2
EDGE_WEIGHT_TYPE: EUC_2D
NODE_COORD_SECTION
1 15.0 -21.0
2 -5.0 -25.0
3 11.2 7.6
4 -15.1 -12.2
5 31.2 -20.4
6 -15.7 0.1
7 16.6 -10.4
8 23.9 7.6
9 -20.0 8.5
10 -36.7 1.2
11 -12.4 12.8
12 26.2 -1.1
13 22.6 20.4
14 -13.8 2.2
15 -1.7 -23.7
16 36.3 -20.6
17 -27.3 -6.6
18 -16.8 -7.9
19 36.1 -10.3
20 -15.8 -28.0
EOF
